solution status: time limit reached
objective value:                                  162
shell_i_$_206__2                                    1 	(obj:0)
shell_j_$_156__2                                    1 	(obj:0)
shell_j_$_225__2                                    1 	(obj:0)
shell_j_$_244__2                                    1 	(obj:0)
shell_j_$_61__2                                     1 	(obj:0)
shell_i_$_161__2                                    1 	(obj:0)
shell_i_$_170__2                                    1 	(obj:0)
shell_j_$_211__2                                    1 	(obj:0)
shell_j_$_220                                       1 	(obj:0)
shell_j_$_43__2                                     1 	(obj:0)
shell_i_$_250__2                                    1 	(obj:0)
shell_j_$_54__2                                     1 	(obj:0)
shell_j_$_41__2                                     1 	(obj:0)
shell_j_$_191__2                                    1 	(obj:0)
shell_j_$_179                                       1 	(obj:0)
shell_j_$_137                                       1 	(obj:0)
shell_j_$_32__2                                     1 	(obj:0)
shell_j_$_195__2                                    1 	(obj:0)
shell_j_$_260__2                                    1 	(obj:0)
shell_j_$_209__2                                    1 	(obj:0)
shell_j_$_55__2                                     1 	(obj:0)
shell_j_$_263__2                                    1 	(obj:0)
shell_j_$_150__2                                    1 	(obj:0)
shell_j_$_176__2                                    1 	(obj:0)
shell_j_$_238__2                                    1 	(obj:0)
shell_j_$_184__2                                    1 	(obj:0)
shell_j_$_265__2                                    1 	(obj:0)
shell_j_$_255__2                                    1 	(obj:0)
shell_j_$_65__2                                     1 	(obj:0)
shell_j_$_42__2                                     1 	(obj:0)
shell_j_$_70                                        1 	(obj:0)
shell_j_$_252__2                                    1 	(obj:0)
shell_j_$_162__2                                    1 	(obj:0)
shell_j_$_247__2                                    1 	(obj:0)
shell_j_$_172__2                                    1 	(obj:0)
shell_j_$_39__2                                     1 	(obj:0)
shell_i_$_249__2                                    1 	(obj:0)
shell_j_$_71__2                                     1 	(obj:0)
shell_i_$_59__2                                     1 	(obj:0)
shell_j_$_57__2                                     1 	(obj:0)
shell_j_$_197__2                                    1 	(obj:0)
shell_j_$_53__2                                     1 	(obj:0)
shell_i_$_224__2                                    1 	(obj:0)
shell_j_$_181__2                                    1 	(obj:0)
shell_j_$_219__2                                    1 	(obj:0)
shell_j_$_202__2                                    1 	(obj:0)
shell_j_$_68__2                                     1 	(obj:0)
shell_j_$_261                                       1 	(obj:0)
shell_j_$_35__2                                     1 	(obj:0)
shell_i_$_33__2                                     1 	(obj:0)
shell_j_$_232__2                                    1 	(obj:0)
shell_j_$_142                                       1 	(obj:0)
shell_j_$_236__2                                    1 	(obj:0)
shell_j_$_258__2                                    1 	(obj:0)
shell_j_$_222__2                                    1 	(obj:0)
shell_j_$_37__2                                     1 	(obj:0)
shell_j_$_136                                       1 	(obj:0)
shell_j_$_267__2                                    1 	(obj:0)
shell_j_$_266__2                                    1 	(obj:0)
shell_j_$_186__2                                    1 	(obj:0)
shell_i_$_205__2                                    1 	(obj:0)
shell_i_$_240__2                                    1 	(obj:0)
shell_j_$_165__2                                    1 	(obj:0)
shell_j_$_66                                        1 	(obj:0)
shell_j_$_174                                       1 	(obj:0)
shell_j_$_256                                       1 	(obj:0)
shell_i_$_49__2                                     1 	(obj:0)
shell_j_$_193                                       1 	(obj:0)
shell_j_$_30__2                                     1 	(obj:0)
shell_j_$_213__2                                    1 	(obj:0)
shell_j_$_31__2                                     1 	(obj:0)
shell_j_$_62__2                                     1 	(obj:0)
shell_j_$_67__2                                     1 	(obj:0)
shell_j_$_215                                       1 	(obj:0)
shell_j_$_36__2                                     1 	(obj:0)
shell_i_$_246__2                                    1 	(obj:0)
shell_j_$_51                                        1 	(obj:0)
shell_j_$_275                                       1 	(obj:0)
shell_j_$_227__2                                    1 	(obj:0)
shell_j_$_199__2                                    1 	(obj:0)
shell_j_$_152                                       1 	(obj:0)
shell_j_$_268__2                                    1 	(obj:0)
shell_j_$_167__2                                    1 	(obj:0)
shell_j_$_34__2                                     1 	(obj:0)
shell_j_$_56__2                                     1 	(obj:0)
shell_j_$_73                                        1 	(obj:0)
shell_j_$_234                                       1 	(obj:0)
shell_i_$_185__2                                    1 	(obj:0)
shell_i_$_183__2                                    1 	(obj:0)
shell_j_$_226__2                                    1 	(obj:0)
shell_j_$_46__2                                     1 	(obj:0)
shell_j_$_60__2                                     1 	(obj:0)
shell_i_$_40__2                                     1 	(obj:0)
shell_j_$_254__2                                    1 	(obj:0)
shell_j_$_45__2                                     1 	(obj:0)
shell_j_$_44                                        1 	(obj:0)
shell_j_$_143                                       1 	(obj:0)
shell_i_$_158__2                                    1 	(obj:0)
shell_i_$_64__2                                     1 	(obj:0)
shell_j_$_204__2                                    1 	(obj:0)
shell_j_$_243__2                                    1 	(obj:0)
shell_j_$_208__2                                    1 	(obj:0)
shell_j_$_168__2                                    1 	(obj:0)
shell_j_$_154__2                                    1 	(obj:0)
shell_j_$_203__2                                    1 	(obj:0)
shell_j_$_217__2                                    1 	(obj:0)
shell_j_$_38__2                                     1 	(obj:0)
shell_i_$_164__2                                    1 	(obj:0)
shell_j_$_48                                        1 	(obj:0)
shell_j_$_245__2                                    1 	(obj:0)
shell_j_$_273__2                                    1 	(obj:0)
shell_j_$_214__2                                    1 	(obj:0)
shell_j_$_173__2                                    1 	(obj:0)
shell_j_$_58__2                                     1 	(obj:0)
shell_j_$_63__2                                     1 	(obj:0)
shell_j_$_52__2                                     1 	(obj:0)
shell_j_$_178__2                                    1 	(obj:0)
shell_j_$_163__2                                    1 	(obj:0)
$_261_y                                            -4 	(obj:0)
$_261_z                                            -4 	(obj:0)
$_209__2_x                                         -2 	(obj:0)
$_35__2_y                                          -4 	(obj:0)
$_35__2_z                                          -9 	(obj:0)
$_209__2_y                                         -4 	(obj:0)
$_209__2_z                                          2 	(obj:0)
$_33__2_x                                          -4 	(obj:0)
$_33__2_y                                          -2 	(obj:0)
$_33__2_z                                           2 	(obj:0)
$_156__2_x                                         -4 	(obj:0)
$_244__2_x                                         -4 	(obj:0)
$_232__2_x                                         -2 	(obj:0)
$_232__2_y                                         -4 	(obj:0)
$_232__2_z                                          6 	(obj:0)
$_55__2_x                                          -4 	(obj:0)
$_55__2_y                                          -4 	(obj:0)
$_142_x                                            -3 	(obj:0)
$_142_y                                            -4 	(obj:0)
$_142_z                                            -2 	(obj:0)
$_55__2_z                                         -11 	(obj:0)
$_220_x                                            -1 	(obj:0)
$_236__2_x                                          4 	(obj:0)
$_236__2_y                                          4 	(obj:0)
$_236__2_z                                          4 	(obj:0)
$_220_y                                            -4 	(obj:0)
$_263__2_x                                         -2 	(obj:0)
$_258__2_x                                         -1 	(obj:0)
$_258__2_y                                         -4 	(obj:0)
$_258__2_z                                         -1 	(obj:0)
$_263__2_y                                         -4 	(obj:0)
$_222__2_x                                          1 	(obj:0)
$_222__2_y                                         -4 	(obj:0)
$_220_z                                            -5 	(obj:0)
$_244__2_y                                         -4 	(obj:0)
$_37__2_x                                           4 	(obj:0)
$_37__2_y                                          -4 	(obj:0)
$_37__2_z                                           2 	(obj:0)
$_150__2_x                                          4 	(obj:0)
$_150__2_y                                         -4 	(obj:0)
$_136_x                                             2 	(obj:0)
$_136_y                                            -4 	(obj:0)
$_136_z                                            -2 	(obj:0)
$_150__2_z                                          8 	(obj:0)
$_244__2_z                                          7 	(obj:0)
$_267__2_x                                          2 	(obj:0)
$_267__2_y                                         -4 	(obj:0)
$_43__2_x                                          -3 	(obj:0)
$_176__2_x                                         -3 	(obj:0)
$_266__2_x                                         -2 	(obj:0)
$_266__2_y                                         -4 	(obj:0)
$_266__2_z                                         -2 	(obj:0)
$_176__2_y                                         -4 	(obj:0)
$_176__2_z                                          1 	(obj:0)
$_186__2_x                                          1 	(obj:0)
$_186__2_y                                         -4 	(obj:0)
$_186__2_z                                          5 	(obj:0)
$_43__2_y                                          -4 	(obj:0)
$_43__2_z                                           7 	(obj:0)
$_205__2_x                                         -4 	(obj:0)
$_205__2_y                                         -4 	(obj:0)
$_205__2_z                                         -1 	(obj:0)
$_238__2_x                                         -1 	(obj:0)
$_238__2_y                                         -4 	(obj:0)
$_240__2_x                                          4 	(obj:0)
$_240__2_y                                         -3 	(obj:0)
$_240__2_z                                          7 	(obj:0)
$_238__2_z                                        -12 	(obj:0)
$_156__2_y                                          4 	(obj:0)
$_165__2_x                                         -4 	(obj:0)
$_165__2_y                                         -4 	(obj:0)
$_156__2_z                                         -6 	(obj:0)
$_184__2_x                                          2 	(obj:0)
$_66_x                                             -2 	(obj:0)
$_66_y                                             -4 	(obj:0)
$_66_z                                             -1 	(obj:0)
$_184__2_y                                         -4 	(obj:0)
$_184__2_z                                         -3 	(obj:0)
$_174_x                                            -2 	(obj:0)
$_174_y                                            -4 	(obj:0)
$_174_z                                             1 	(obj:0)
$_250__2_x                                         -4 	(obj:0)
$_250__2_y                                         -4 	(obj:0)
$_256_x                                            -1 	(obj:0)
$_256_y                                            -4 	(obj:0)
$_256_z                                            -2 	(obj:0)
$_265__2_x                                          1 	(obj:0)
$_265__2_y                                         -4 	(obj:0)
$_49__2_x                                           4 	(obj:0)
$_49__2_y                                          -3 	(obj:0)
$_49__2_z                                           1 	(obj:0)
$_265__2_z                                          4 	(obj:0)
$_250__2_z                                         -4 	(obj:0)
$_193_x                                             1 	(obj:0)
$_193_y                                            -4 	(obj:0)
$_193_z                                            -1 	(obj:0)
$_61__2_x                                           1 	(obj:0)
$_30__2_x                                           4 	(obj:0)
$_30__2_y                                          -4 	(obj:0)
$_30__2_z                                          20 	(obj:0)
$_255__2_y                                         -4 	(obj:0)
$_255__2_z                                          6 	(obj:0)
$_213__2_x                                         -4 	(obj:0)
$_213__2_y                                         -4 	(obj:0)
$_213__2_z                                          3 	(obj:0)
$_61__2_y                                          -4 	(obj:0)
$_54__2_x                                           4 	(obj:0)
$_31__2_x                                           4 	(obj:0)
$_31__2_y                                          -4 	(obj:0)
$_31__2_z                                           1 	(obj:0)
$_65__2_x                                           4 	(obj:0)
$_65__2_y                                          -4 	(obj:0)
$_62__2_y                                          -4 	(obj:0)
$_62__2_z                                           1 	(obj:0)
$_65__2_z                                           3 	(obj:0)
$_54__2_y                                          -4 	(obj:0)
$_67__2_x                                           1 	(obj:0)
$_67__2_y                                          -4 	(obj:0)
$_67__2_z                                           1 	(obj:0)
$_54__2_z                                           5 	(obj:0)
$_42__2_x                                          -2 	(obj:0)
$_215_x                                            -1 	(obj:0)
$_215_y                                            -4 	(obj:0)
$_42__2_y                                          -4 	(obj:0)
$_42__2_z                                           9 	(obj:0)
$_36__2_x                                          -4 	(obj:0)
$_36__2_y                                          -4 	(obj:0)
$_36__2_z                                          -7 	(obj:0)
$_61__2_z                                          -3 	(obj:0)
$_206__2_z                                         -1 	(obj:0)
$_246__2_x                                         -4 	(obj:0)
$_246__2_y                                         -3 	(obj:0)
$_246__2_z                                         -9 	(obj:0)
$_70_x                                             -1 	(obj:0)
$_70_y                                             -4 	(obj:0)
$_51_x                                              4 	(obj:0)
$_51_y                                             -4 	(obj:0)
$_51_z                                             -3 	(obj:0)
$_70_z                                             -4 	(obj:0)
$_41__2_x                                          -4 	(obj:0)
$_275_y                                            -4 	(obj:0)
$_275_z                                            -1 	(obj:0)
$_41__2_y                                          -4 	(obj:0)
$_252__2_x                                          1 	(obj:0)
$_227__2_x                                          3 	(obj:0)
$_227__2_y                                         -4 	(obj:0)
$_227__2_z                                          5 	(obj:0)
$_252__2_y                                         -4 	(obj:0)
$_252__2_z                                         -2 	(obj:0)
$_199__2_x                                          1 	(obj:0)
$_199__2_y                                         -4 	(obj:0)
$_199__2_z                                          6 	(obj:0)
$_41__2_z                                          13 	(obj:0)
$_206__2_x                                         -4 	(obj:0)
$_152_x                                             4 	(obj:0)
$_152_y                                            -4 	(obj:0)
$_152_z                                            -4 	(obj:0)
$_162__2_x                                          4 	(obj:0)
$_162__2_y                                         -4 	(obj:0)
$_268__2_x                                          2 	(obj:0)
$_268__2_y                                         -4 	(obj:0)
$_268__2_z                                          2 	(obj:0)
$_162__2_z                                         22 	(obj:0)
$_161__2_x                                          4 	(obj:0)
$_167__2_x                                         -4 	(obj:0)
$_167__2_y                                         -4 	(obj:0)
$_167__2_z                                         -2 	(obj:0)
$_191__2_x                                          4 	(obj:0)
$_247__2_x                                         -3 	(obj:0)
$_34__2_x                                          -4 	(obj:0)
$_34__2_y                                          -4 	(obj:0)
$_34__2_z                                          -6 	(obj:0)
$_247__2_y                                         -4 	(obj:0)
$_247__2_z                                         -3 	(obj:0)
$_56__2_x                                          -4 	(obj:0)
$_56__2_y                                          -4 	(obj:0)
$_56__2_z                                          -5 	(obj:0)
$_191__2_y                                         -4 	(obj:0)
$_191__2_z                                          7 	(obj:0)
$_73_x                                              4 	(obj:0)
$_73_y                                             -4 	(obj:0)
$_73_z                                             -1 	(obj:0)
$_172__2_x                                          1 	(obj:0)
$_172__2_y                                         -4 	(obj:0)
$_234_y                                            -4 	(obj:0)
$_234_z                                            -4 	(obj:0)
$_172__2_z                                         11 	(obj:0)
$_161__2_y                                          4 	(obj:0)
$_185__2_x                                          4 	(obj:0)
$_185__2_y                                          1 	(obj:0)
$_185__2_z                                          3 	(obj:0)
$_39__2_x                                           4 	(obj:0)
$_183__2_x                                          4 	(obj:0)
$_183__2_y                                          1 	(obj:0)
$_183__2_z                                         20 	(obj:0)
$_39__2_y                                           4 	(obj:0)
$_39__2_z                                           1 	(obj:0)
$_226__2_x                                          1 	(obj:0)
$_226__2_y                                         -4 	(obj:0)
$_226__2_z                                          2 	(obj:0)
$_179_y                                            -4 	(obj:0)
$_46__2_x                                           1 	(obj:0)
$_46__2_y                                          -4 	(obj:0)
$_46__2_z                                           3 	(obj:0)
$_249__2_x                                         -4 	(obj:0)
$_249__2_y                                         -3 	(obj:0)
$_60__2_x                                          -1 	(obj:0)
$_60__2_y                                          -4 	(obj:0)
$_60__2_z                                           4 	(obj:0)
$_249__2_z                                          2 	(obj:0)
$_179_z                                            -3 	(obj:0)
$_40__2_x                                           4 	(obj:0)
$_40__2_z                                           2 	(obj:0)
$_225__2_x                                          1 	(obj:0)
$_71__2_x                                          -1 	(obj:0)
$_254__2_x                                          4 	(obj:0)
$_254__2_y                                         -4 	(obj:0)
$_254__2_z                                         -6 	(obj:0)
$_71__2_y                                          -4 	(obj:0)
$_71__2_z                                          -3 	(obj:0)
$_45__2_x                                           2 	(obj:0)
$_45__2_y                                          -4 	(obj:0)
$_45__2_z                                           5 	(obj:0)
$_225__2_y                                         -4 	(obj:0)
$_137_x                                            -1 	(obj:0)
$_44_x                                              3 	(obj:0)
$_44_y                                             -4 	(obj:0)
$_44_z                                             -3 	(obj:0)
$_59__2_x                                           4 	(obj:0)
$_59__2_y                                          -4 	(obj:0)
$_143_x                                             2 	(obj:0)
$_143_y                                            -4 	(obj:0)
$_143_z                                            -4 	(obj:0)
$_59__2_z                                          -2 	(obj:0)
$_137_y                                            -4 	(obj:0)
$_158__2_x                                          4 	(obj:0)
$_158__2_z                                          1 	(obj:0)
$_137_z                                             1 	(obj:0)
$_57__2_x                                          -3 	(obj:0)
$_64__2_x                                           4 	(obj:0)
$_64__2_y                                          -1 	(obj:0)
$_64__2_z                                          12 	(obj:0)
$_57__2_y                                          -4 	(obj:0)
$_57__2_z                                          -1 	(obj:0)
$_204__2_x                                         -4 	(obj:0)
$_204__2_y                                         -4 	(obj:0)
$_204__2_z                                          4 	(obj:0)
$_170__2_x                                          4 	(obj:0)
$_170__2_y                                          2 	(obj:0)
$_243__2_x                                          4 	(obj:0)
$_243__2_y                                          4 	(obj:0)
$_243__2_z                                          8 	(obj:0)
$_197__2_x                                          4 	(obj:0)
$_197__2_y                                         -4 	(obj:0)
$_208__2_x                                         -3 	(obj:0)
$_208__2_y                                         -4 	(obj:0)
$_208__2_z                                         -4 	(obj:0)
$_197__2_z                                         -8 	(obj:0)
$_32__2_x                                          -4 	(obj:0)
$_168__2_x                                         -3 	(obj:0)
$_168__2_y                                         -4 	(obj:0)
$_168__2_z                                         -5 	(obj:0)
$_32__2_y                                          -4 	(obj:0)
$_53__2_x                                          -4 	(obj:0)
$_154__2_x                                          4 	(obj:0)
$_154__2_y                                          4 	(obj:0)
$_154__2_z                                         25 	(obj:0)
$_53__2_y                                          -4 	(obj:0)
$_53__2_z                                          -3 	(obj:0)
$_203__2_x                                          4 	(obj:0)
$_203__2_y                                         -4 	(obj:0)
$_203__2_z                                         14 	(obj:0)
$_32__2_z                                         -12 	(obj:0)
$_170__2_z                                          3 	(obj:0)
$_217__2_x                                         -3 	(obj:0)
$_217__2_y                                         -4 	(obj:0)
$_224__2_x                                          4 	(obj:0)
$_38__2_x                                          -4 	(obj:0)
$_38__2_y                                          -4 	(obj:0)
$_38__2_z                                           2 	(obj:0)
$_224__2_z                                         14 	(obj:0)
$_225__2_z                                         -5 	(obj:0)
$_164__2_x                                         -4 	(obj:0)
$_164__2_y                                         -4 	(obj:0)
$_164__2_z                                          1 	(obj:0)
$_195__2_x                                          4 	(obj:0)
$_181__2_x                                          4 	(obj:0)
$_48_x                                             -1 	(obj:0)
$_48_y                                             -4 	(obj:0)
$_48_z                                              2 	(obj:0)
$_181__2_y                                         -4 	(obj:0)
$_245__2_x                                         -4 	(obj:0)
$_245__2_y                                         -4 	(obj:0)
$_245__2_z                                          6 	(obj:0)
$_195__2_y                                          4 	(obj:0)
$_195__2_z                                         16 	(obj:0)
$_273__2_y                                         -4 	(obj:0)
$_219__2_x                                          3 	(obj:0)
$_219__2_y                                         -4 	(obj:0)
$_214__2_y                                         -4 	(obj:0)
$_214__2_z                                          2 	(obj:0)
$_219__2_z                                         -1 	(obj:0)
$_206__2_y                                         -3 	(obj:0)
$_173__2_x                                          4 	(obj:0)
$_173__2_y                                         -4 	(obj:0)
$_173__2_z                                          9 	(obj:0)
$_211__2_x                                          3 	(obj:0)
$_202__2_x                                         -3 	(obj:0)
$_58__2_x                                          -1 	(obj:0)
$_58__2_y                                          -4 	(obj:0)
$_58__2_z                                           5 	(obj:0)
$_202__2_y                                         -4 	(obj:0)
$_202__2_z                                          6 	(obj:0)
$_63__2_x                                          -1 	(obj:0)
$_63__2_y                                          -4 	(obj:0)
$_63__2_z                                           8 	(obj:0)
$_260__2_y                                         -4 	(obj:0)
$_52__2_x                                           4 	(obj:0)
$_52__2_y                                          -4 	(obj:0)
$_52__2_z                                          -5 	(obj:0)
$_68__2_x                                          -2 	(obj:0)
$_68__2_y                                          -4 	(obj:0)
$_178__2_x                                          2 	(obj:0)
$_178__2_y                                         -4 	(obj:0)
$_178__2_z                                          1 	(obj:0)
$_68__2_z                                           3 	(obj:0)
$_260__2_z                                         -2 	(obj:0)
$_163__2_x                                         -4 	(obj:0)
$_163__2_y                                          4 	(obj:0)
$_163__2_z                                          3 	(obj:0)
$_211__2_y                                         -4 	(obj:0)
$_261_x                                             1 	(obj:0)
x592                                                3 	(obj:1)
x596                                                3 	(obj:1)
x597                                                3 	(obj:1)
x603                                                3 	(obj:1)
x611                                                3 	(obj:1)
x612                                                2 	(obj:1)
x617                                                2 	(obj:1)
x621                                                3 	(obj:1)
x623                                                3 	(obj:1)
x635                                                3 	(obj:1)
x638                                                1 	(obj:1)
x656                                                3 	(obj:1)
x660                                                3 	(obj:1)
x666                                                3 	(obj:1)
x669                                                3 	(obj:1)
x675                                                3 	(obj:1)
x678                                                3 	(obj:1)
x689                                                2 	(obj:1)
x690                                                1 	(obj:1)
x696                                                1 	(obj:1)
x698                                                1 	(obj:1)
x699                                                3 	(obj:1)
x707                                                3 	(obj:1)
x714                                                1 	(obj:1)
x719                                                3 	(obj:1)
x732                                                3 	(obj:1)
x734                                                3 	(obj:1)
x735                                                3 	(obj:1)
x738                                                2 	(obj:1)
x740                                                1 	(obj:1)
x741                                                1 	(obj:1)
x743                                                1 	(obj:1)
x748                                                2 	(obj:1)
x750                                                3 	(obj:1)
x753                                                1 	(obj:1)
x762                                                3 	(obj:1)
x767                                                1 	(obj:1)
x768                                                3 	(obj:1)
x777                                                3 	(obj:1)
x781                                                3 	(obj:1)
x784                                                3 	(obj:1)
x791                                                3 	(obj:1)
x795                                                1 	(obj:1)
x805                                                1 	(obj:1)
x807                                                1 	(obj:1)
x822                                                3 	(obj:1)
x825                                                3 	(obj:1)
x833                                                1 	(obj:1)
x838                                                3 	(obj:1)
x839                                                3 	(obj:1)
x842                                                3 	(obj:1)
x845                                                1 	(obj:1)
x848                                                1 	(obj:1)
x856                                                2 	(obj:1)
x857                                                2 	(obj:1)
x858                                                2 	(obj:1)
x869                                                3 	(obj:1)
x872                                                3 	(obj:1)
x878                                                1 	(obj:1)
x879                                                1 	(obj:1)
x881                                                2 	(obj:1)
x883                                                3 	(obj:1)
x888                                                3 	(obj:1)
x891                                                3 	(obj:1)
x893                                                3 	(obj:1)
x894                                                3 	(obj:1)
x924                                                1 	(obj:1)
x927                                                3 	(obj:1)
x960                                                3 	(obj:1)
x962                                                2 	(obj:1)
